p cnf 37 101
a 17 28 0
e 1 2 3 4 5 6 7 8 9 10 11 12 13 14 15 16 18 19 20 21 22 23 24 25 26 27 29 30 31 32 33 34 35 36 37 0
3 1 0
3 2 0
-1 -2 -3 0
5 3 0
5 4 0
-3 -4 -5 0
7 6 0
7 -3 0
-6 3 -7 0
-5 7 -8 0
5 -7 -8 0
-5 -7 8 0
5 7 8 0
-9 5 0
-9 -6 0
-5 6 9 0
10 -8 0
10 9 0
8 -9 -10 0
-11 4 0
-11 6 0
-4 -6 11 0
-12 -4 0
-12 -11 0
4 11 12 0
-13 10 0
-13 -12 0
-10 12 13 0
14 1 0
14 -4 0
-1 4 -14 0
-17 -5 0
-17 16 0
5 -16 17 0
-15 17 -18 0
15 -17 -18 0
-15 -17 18 0
15 17 18 0
-2 -11 -19 0
2 11 -19 0
-2 11 19 0
2 -11 19 0
-20 -18 0
-20 -19 0
18 19 20 0
15 -21 0
-15 -21 0
22 4 0
22 16 0
-4 -16 -22 0
3 22 -23 0
-3 -22 -23 0
3 -22 23 0
-3 22 23 0
24 -21 0
24 -23 0
21 23 -24 0
-25 -20 0
-25 24 0
20 -24 25 0
27 -26 0
27 3 0
26 -3 -27 0
28 -25 0
28 -27 0
25 27 -28 0
-29 14 0
-29 28 0
-14 -28 29 0
-31 -3 0
-31 30 0
3 -30 31 0
-29 -31 -32 0
29 31 -32 0
-29 31 32 0
29 -31 32 0
33 -13 0
33 -32 0
13 32 -33 0
-34 4 0
-34 -21 0
-4 21 34 0
35 22 0
35 1 0
-22 -1 -35 0
36 -34 0
36 35 0
34 -35 -36 0
-37 -33 0
-37 36 0
33 -36 37 0
11 -4 26 0
-22 -30 29 5 37 35 0
-27 -24 -29 12 31 0
5 25 -26 -8 -22 -7 18 0
-25 1 5 -27 23 15 0
-30 -6 -37 -17 0
-26 16 -35 -10 0
-14 -25 -34 0
-34 -19 33 22 0
37 0
